N = 13;
H = 5;
T = 2;

avail = array3d(1..N, 1..H, 1..T, [2, 10, 4, 6, 9, 0, 5, 8, 5, 3, 8, 9, 9, 2, 5, 3, 5, 2, 0, 0, 5, 8, 0, 9, 8, 3, 9, 9, 7, 8, 8, 10, 5, 9, 9, 4, 1, 6, 6, 9, 8, 4, 5, 4, 7, 9, 5, 1, 1, 7, 1, 8, 0, 6, 8, 7, 8, 5, 5, 4, 10, 3, 1, 8, 2, 7, 5, 0, 7, 2, 10, 8, 1, 0, 8, 8, 5, 2, 5, 8, 5, 3, 2, 4, 0, 3, 2, 2, 5, 2, 2, 1, 1, 7, 1, 5, 2, 4, 0, 3, 8, 7, 4, 8, 8, 0, 10, 8, 0, 4, 2, 1, 5, 3, 5, 0, 6, 7, 4, 3, 7, 0, 7, 7, 1, 2, 4, 9, 9, 9]);

r = array2d(1..H, 1..T, [5, 4, 4, 7, 4, 1, 5, 4, 5, 5]);
